c adapted from "Dijkstra Algorithm Example" by barngrader on YouTube: 0nVYi3o161A
p sp 7 12
a 1 2 3
a 1 3 5
a 1 4 6
a 2 1 3
a 2 4 2
a 3 1 5
a 3 4 2
a 3 5 6
a 3 6 3
a 3 7 7
a 4 1 6
a 4 2 2
a 4 3 2
a 4 6 9
a 5 3 6
a 5 6 5
a 5 7 2
a 6 3 3
a 6 4 9
a 6 5 5
a 6 7 1
a 7 3 7
a 7 5 2
a 7 6 1
